16
1
3
5
2
2
3
1
4
7
8
7
3
6
8
6
6
8
9
10
3
4
4
2
8
3
4
1
11
5
11
12
10
13
10
5
12
11
4
1
12
6
11
13
5
7
9
6
6
15
8
1
2
9
2
9
14
6
9
9
14
15
2
3
15
13
10
7
16
12
5
